c 204_3_checker.cnf
c
c field = 204
c formula set type = 3_checker
c
p cnf 4 34
400 
402 
404 
-398 
401 
403 
405 
-399 
400 
402 
404 
-408 
401 
403 
405 
-409 
402 
404 
408 
-400 
403 
405 
409 
-401 
402 
404 
408 
-410 
403 
405 
409 
-411 
404 
408 
410 
-402 
405 
409 
411 
-403 
404 
408 
410 
-412 
405 
409 
411 
-413 
408 
410 
412 
-404 
409 
411 
413 
-405 
408 
410 
412 
-414 
409 
411 
413 
-415 
316 
346 
376 
-286 
317 
347 
377 
-287 
316 
346 
376 
-436 
317 
347 
377 
-437 
346 
376 
436 
-316 
347 
377 
437 
-317 
310 
342 
374 
-278 
311 
343 
375 
-279 
310 
342 
374 
-438 
311 
343 
375 
-439 
342 
374 
438 
-310 
343 
375 
439 
-311 
322 
350 
378 
-294 
323 
351 
379 
-295 
322 
350 
378 
-434 
323 
351 
379 
-435 
350 
378 
434 
-322 
351 
379 
435 
-323 
